&CONTROL
  calculation	= "relax",
  title		= "benzotriazole",
  pseudo_dir 	= "/pseudo",
  outdir	= "/benzotriazole",
  verbosity	= "high"
  restart_mode	= "from_scratch",
  prefix	= "relax"
/
&SYSTEM
  ibrav		= 1,
  nat		= 14,
  ntyp		= 3,
  nbnd		= 36,
  celldm(1)	= 40.D0,
  ecutwfc	= 32.D0,
  ecutrho	= 256.D0,
  occupations	= "smearing",
  smearing	= "methfessel-paxton",
  degauss	= 0.05D0,
/
&ELECTRONS
  conv_thr	= 1.D-6,
  mixing_beta	= 0.7D0,
/
&IONS
/
ATOMIC_SPECIES
C  12.011  C.pbe-n-kjpaw_psl.1.0.0.UPF
N  14.007  N.pbe-n-radius_5.UPF
H   1.008  H.pbe-rrkjus_psl.1.0.0.UPF
ATOMIC_POSITIONS {angstrom}
C   -2.1459    0.7028    0.0004
C   -2.1542   -0.6862    0.0000
C   -0.9860   -1.3906   -0.0001
C    0.2383   -0.7088   -0.0002
C    0.2398    0.6969   -0.0003
C   -0.9653    1.3912    0.0003
N    1.5610    1.0764   -0.0001
H    1.9043    1.9837    0.0002
N    2.3151   -0.1064    0.0002
N    1.5222   -1.1194    0.0001
H   -3.0808    1.2436   -0.0037
H   -3.0961   -1.2145    0.0002
H   -1.0046   -2.4704    0.0004
H   -0.9680    2.4712   -0.0001
K_POINTS {automatic}
1 1 1 1 1 1
