&CONTROL
  calculation  = "relax",
  title       = "MgAl2Cu_2x1_C6H5N3_Al_relax",
  pseudo_dir   = "/pseudo",
  outdir       = "/MgAl2Cu_2x1_C6H5N3_final",
  verbosity    = "high"
  restart_mode = "from_scratch"
  forc_conv_thr = 7.5D-3
/
&SYSTEM
  ibrav       = 8,
  nat         = 60,
  ntyp        = 6,
  nbnd        = 160,
  celldm(1)   = 15.05421972,
  celldm(2)   = 1.156499525,   
  celldm(3)   = 4.75,    
  ecutwfc     = 90.D0,
  ecutrho     = 720.D0,
  occupations = "smearing",
  smearing    = "methfessel-paxton",
  degauss     = 0.05D0,
/
&ELECTRONS
  conv_thr    = 1.D-6,
  mixing_beta = 0.7D0,
  diagonalization = 'cg',
/
&IONS
/
ATOMIC_SPECIES
Al  26.98  Al.pbe-n-kjpaw_psl.1.0.0.UPF
Cu  63.55  Cu.paw.z_11.ld1.psl.v1.0.0-low.upf
Mg  24.31  Mg.pbe-n-kjpaw_psl.0.3.0.UPF
C  12.011  C.pbe-n-kjpaw_psl.1.0.0.UPF
N  14.007  N.pbe-n-radius_5.UPF
H   1.008  H.pbe-rrkjus_psl.1.0.0.UPF
ATOMIC_POSITIONS {angstrom}
H	4.850098 	4.254033       10.547501
H	3.238233 	2.388661       10.546638
C	4.507696 	3.8573 		9.589626
C	3.582244 	2.7865 		9.589451
H	5.704418 	5.241132 	8.419827
C	4.990553 	4.415308 	8.411931
C	3.108023 	2.237493 	8.407207
H	2.394579 	1.411955 	8.397602
C	4.50819 	3.856857 	7.2198
C	3.583033 	2.786813 	7.206336
N	4.717219 	4.098461 	5.893765
N	3.302481 	2.462347 	5.892707
H	5.313358 	4.787978 	5.444073
N	3.983175 	3.249587 	5.1171
Al	1.991517 	7.856289 	3.11763
Al	5.974813 	7.856289 	3.11763
Al	0.0 		3.249629 	3.117191
Al	3.983177 	3.249592 	3.117098
Mg	5.974773 	5.181372 	2.269275
Mg	1.991557 	5.181372 	2.269275
Mg	0.0 		0.574832 	2.269183
Mg	3.983177 	0.57474 	2.269183
Cu	3.983177 	7.117657 	1.897759
Cu	0.0 		7.117759 	1.897551
Cu	1.991692 	2.510942 	1.89732
Cu	5.974646 	2.510942 	1.89732
Al	5.97467 	7.849415 	0.438834
Al	1.991668 	7.849415 	0.438834
Al	0.0 		3.242664 	0.438371
Al	3.983177 	3.242682 	0.438256
Al	3.983177 	5.970398       -0.438255
Al	0.0 		5.970417       -0.438371
Al	1.991668 	1.363665       -0.438834
Al	5.97467 	1.363665       -0.438834
Cu	1.991692 	6.702138       -1.897319
Cu	5.974646 	6.702138       -1.897319
Cu	0.0 		2.095322       -1.897551
Cu	3.983177 	2.095423       -1.897759
Mg	3.983177 	8.638332       -2.269183
Mg	0.0 		8.638249       -2.269183
Mg	5.974773 	4.031699       -2.269276
Mg	1.991557 	4.031699       -2.269276
Al	3.983177 	5.963489       -3.117098
Al	0.0 		5.963442       -3.11719
Al	5.974813 	1.356792       -3.11763
Al	1.991517 	1.356792       -3.11763
N	3.98318 	5.96349        -5.1171
H	5.421243 	4.525433       -5.444073
N	3.247281 	6.699387       -5.892707
N	4.776689 	5.169922       -5.893765
C	3.550586 	6.396082       -7.206336
C	4.550851 	5.395892       -7.2198
H	2.265368 	7.680944       -8.397602
C	3.037094 	6.909611       -8.407207
C	5.072918 	4.874368       -8.411931
H	5.844899 	4.102594       -8.419827
C	3.550331 	6.396892       -9.589451
C	4.551329 	5.396352       -9.589626
H	3.178439 	6.7688        -10.546638
H	4.922234 	5.026129      -10.547501
K_POINTS {automatic}
1 2 1 1 1 1 
