&CONTROL
  calculation  = "nscf",
  title       = "MgAl2Cu_C6H5N3_nscf_gamma",
  pseudo_dir   = "/pseudo",
  outdir       = "/MgAl2Cu_2x1_C6H5N3_final/embedding",
  verbosity    = "high",
  restart_mode = "from_scratch",
/
&SYSTEM
  ibrav       = 8,
  nat         = 60,
  ntyp        = 6,
  nbnd        = 350,
  celldm(1)   = 15.05421972,
  celldm(2)   = 1.156499525,   
  celldm(3)   = 4.75,    
  ecutwfc     = 90.D0,
  ecutrho     = 360.D0,
  occupations = "smearing",
  smearing    = "methfessel-paxton",
  degauss     = 0.05D0,
/
&ELECTRONS
  conv_thr    = 1.D-6,
  mixing_beta = 0.7D0,
  diagonalization = 'cg',
/
&IONS
/
ATOMIC_SPECIES
Al  26.98  Al_ONCV_PBE-1.2.upf
Cu  63.55  Cu_ONCV_PBE-1.2.upf
Mg  24.31  Mg_ONCV_PBE-1.2.upf
C  12.011  C_ONCV_PBE-1.2.upf
N  14.007  N_ONCV_PBE-1.2.upf
H   1.008  H_ONCV_PBE-1.2.upf
ATOMIC_POSITIONS {angstrom}
H             4.8591786277        4.2596337386       10.5193323950
H             3.2495533449        2.3914423578       10.5219522668
C             4.5125678207        3.8649359573        9.5656868101
C             3.5897115214        2.7951132809        9.5667005128
H             5.7150033656        5.2490639326        8.4004270833
C             4.9971491216        4.4286649914        8.3843288305
C             3.1096218335        2.2473075665        8.3844088442
H             2.3974616249        1.4241756354        8.3723426150
C             4.5156912751        3.8767555227        7.1916992487
C             3.5797548804        2.8019429385        7.1784775120
N             4.7397469962        4.1340105258        5.8711249019
N             3.2852018852        2.4743816096        5.8871099758
H             5.3047910422        4.8448204472        5.4031167833
N             3.9838352819        3.2782543840        5.1098776821
Al            2.0049541116        7.7430427146        2.9800835045
Al            5.9604818933        7.6786929175        3.0042390928
Al           -0.0046836436        3.1119016597        2.9889277330
Al            3.9734302314        3.0411820827        3.1307181990
Mg            5.9698001738        5.1268396653        1.8473157961
Mg            1.9903097055        5.1353050312        1.8754299714
Mg           -0.0206770792        0.5451215856        1.8638672282
Mg            3.9929170393        0.5329842633        1.8841122666
Cu            3.9780544739        7.0681224834        1.8502699009
Cu            0.0030306739        7.1326530943        1.8253466714
Cu            2.0121210363        2.4960360000        1.8475096146
Cu            5.9418423039        2.5064743582        1.8337600859
Al            5.9515219812        7.8798988153        0.3785963684
Al            2.0072145593        7.8807416506        0.3562109673
Al            0.0073078927        3.2818703325        0.3743090552
Al            3.9725656743        3.3011821276        0.4220319814
Al            3.9725311591        5.9113464685       -0.4224867272
Al            0.0069664840        5.9301257510       -0.3760021015
Al            2.0075139048        1.3307992569       -0.3555324452
Al            5.9520406217        1.3313795752       -0.3766603749
Cu            2.0108166478        6.7160309083       -1.8473495240
Cu            5.9415145030        6.7058437581       -1.8342208623
Cu            0.0033253900        2.0783393616       -1.8254798747
Cu            3.9782600626        2.1433243519       -1.8483923168
Mg            3.9923370262        8.6793012942       -1.8820302454
Mg           -0.0203951352        8.6663639703       -1.8634794636
Mg            5.9691959617        4.0849825722       -1.8477226853
Mg            1.9913004758        4.0767167358       -1.8772915149
Al            3.9712904638        6.1730872849       -3.1310185753
Al           -0.0047526714        6.0994326703       -2.9911489299
Al            5.9599558598        1.5319048438       -3.0020496470
Al            2.0060499781        1.4689487650       -2.9795408850
N             3.9841173860        5.9364787926       -5.1099355800
H             5.4232412640        4.4779092097       -5.4033817209
N             3.2274554840        6.6858925234       -5.8875958741
N             4.7999369843        5.1373345490       -5.8710898866
C             3.5454791145        6.3802424722       -7.1788354192
C             4.5580270388        5.3773311392       -7.1918261088
H             2.2680661267        7.6694191099       -8.3737290987
C             3.0374214599        6.8995026345       -8.3851171460
C             5.0794184747        4.8620005169       -8.3838948563
H             5.8555538061        4.0964811580       -8.3993817487
C             3.5576252725        6.3887394449       -9.5670588442
C             4.5559087024        5.3889868185       -9.5655910160
H             3.1907075692        6.7677874988      -10.5225001704
H             4.9314609359        5.0209868945      -10.5189682555
K_POINTS {gamma}
